NAME 
ROWS
 N  OBJ
 L  R0      
 L  R1      
 E  R2      
 E  R3      
 E  R4      
 E  R5      
 E  R6      
COLUMNS
    MARKER    'MARKER'                 'INTORG'
    I0(6)     OBJ       125
    I0(6)     R0        68
    I0(6)     R1        166
    I0(6)     R2        7
    I0(6)     R3        5
    I0(6)     R4        1
    I0(6)     R6        1
    I1(4)     OBJ       -78
    I1(4)     R0        -59
    I1(4)     R1        -197
    I1(4)     R2        12
    I1(4)     R6        1
    I2(5)     OBJ       -28
    I2(5)     R0        -93
    I2(5)     R1        -153
    I2(5)     R2        1
    I2(5)     R3        7
    I2(5)     R6        1
    MARKER    'MARKER'                 'INTEND'
    C3(5)     OBJ       8
    C3(5)     R0        -3
    C3(5)     R1        -6
    C3(5)     R3        7
    C3(5)     R4        3
    C3(5)     R5        16
    C4(5)     OBJ       -6
    C4(5)     R0        8
    C4(5)     R1        -10
    C4(5)     R3        1
    C4(5)     R4        2
    C4(5)     R5        -1
    C5(1)     R2        1
    C6(1)     R3        1
    C7(1)     R4        1
    C8(1)     R5        1
    C9(1)     R6        1
RHS
    RHS1      R0        181
    RHS1      R1        -497
    RHS1      R2        78
    RHS1      R3        67
    RHS1      R4        60
    RHS1      R5        53
    RHS1      R6        1
BOUNDS
 UP BND1      I0(6)     2
 UP BND1      I1(4)     2
 UP BND1      I2(5)     2
ENDATA
